\ LP format - for model browsing. Use MPS format to capture full model detail.
Minimize
  10 x_0_1 + 20 x_0_2 + 25 x_0_3 + 12 x_0_4 + 20 x_0_5 + 2 x_0_6 + 10 x_1_0
   + 25 x_1_2 + 20 x_1_3 + 20 x_1_4 + 10 x_1_5 + 11 x_1_6 + 20 x_2_0
   + 25 x_2_1 + 10 x_2_3 + 25 x_2_4 + 11 x_2_5 + 25 x_2_6 + 25 x_3_0
   + 20 x_3_1 + 10 x_3_2 + 30 x_3_4 + 22 x_3_5 + 10 x_3_6 + 12 x_4_0
   + 20 x_4_1 + 25 x_4_2 + 30 x_4_3 + 30 x_4_5 + 20 x_4_6 + 20 x_5_0
   + 10 x_5_1 + 11 x_5_2 + 22 x_5_3 + 30 x_5_4 + 12 x_5_6 + 2 x_6_0
   + 11 x_6_1 + 25 x_6_2 + 10 x_6_3 + 20 x_6_4 + 12 x_6_5
Subject To
 R0: x_0_1 + x_2_1 + x_3_1 + x_4_1 + x_5_1 + x_6_1 = 1
 R1: x_0_2 + x_1_2 + x_3_2 + x_4_2 + x_5_2 + x_6_2 = 1
 R2: x_0_3 + x_1_3 + x_2_3 + x_4_3 + x_5_3 + x_6_3 = 1
 R3: x_0_4 + x_1_4 + x_2_4 + x_3_4 + x_5_4 + x_6_4 = 1
 R4: x_0_5 + x_1_5 + x_2_5 + x_3_5 + x_4_5 + x_6_5 = 1
 R5: x_0_6 + x_1_6 + x_2_6 + x_3_6 + x_4_6 + x_5_6 = 1
 R6: x_1_0 + x_1_2 + x_1_3 + x_1_4 + x_1_5 + x_1_6 = 1
 R7: x_2_0 + x_2_1 + x_2_3 + x_2_4 + x_2_5 + x_2_6 = 1
 R8: x_3_0 + x_3_1 + x_3_2 + x_3_4 + x_3_5 + x_3_6 = 1
 R9: x_4_0 + x_4_1 + x_4_2 + x_4_3 + x_4_5 + x_4_6 = 1
 R10: x_5_0 + x_5_1 + x_5_2 + x_5_3 + x_5_4 + x_5_6 = 1
 R11: x_6_0 + x_6_1 + x_6_2 + x_6_3 + x_6_4 + x_6_5 = 1
 R12: x_0_1 + x_0_2 + x_0_3 + x_0_4 + x_0_5 + x_0_6 = 1
 R13: x_1_0 + x_2_0 + x_3_0 + x_4_0 + x_5_0 + x_6_0 = 1
 R14: y_0_1_1 - y_1_0_1 - y_1_2_1 - y_1_3_1 - y_1_4_1 - y_1_5_1 - y_1_6_1
   + y_2_1_1 + y_3_1_1 + y_4_1_1 + y_5_1_1 + y_6_1_1 = 1
 R15: y_0_2_2 + y_1_2_2 - y_2_0_2 - y_2_1_2 - y_2_3_2 - y_2_4_2 - y_2_5_2
   - y_2_6_2 + y_3_2_2 + y_4_2_2 + y_5_2_2 + y_6_2_2 = 1
 R16: y_0_3_3 + y_1_3_3 + y_2_3_3 - y_3_0_3 - y_3_1_3 - y_3_2_3 - y_3_4_3
   - y_3_5_3 - y_3_6_3 + y_4_3_3 + y_5_3_3 + y_6_3_3 = 1
 R17: y_0_4_4 + y_1_4_4 + y_2_4_4 + y_3_4_4 - y_4_0_4 - y_4_1_4 - y_4_2_4
   - y_4_3_4 - y_4_5_4 - y_4_6_4 + y_5_4_4 + y_6_4_4 = 1
 R18: y_0_5_5 + y_1_5_5 + y_2_5_5 + y_3_5_5 + y_4_5_5 - y_5_0_5 - y_5_1_5
   - y_5_2_5 - y_5_3_5 - y_5_4_5 - y_5_6_5 + y_6_5_5 = 1
 R19: y_0_6_6 + y_1_6_6 + y_2_6_6 + y_3_6_6 + y_4_6_6 + y_5_6_6 - y_6_0_6
   - y_6_1_6 - y_6_2_6 - y_6_3_6 - y_6_4_6 - y_6_5_6 = 1
 R20: - y_0_1_1 - y_0_2_1 - y_0_3_1 - y_0_4_1 - y_0_5_1 - y_0_6_1 + y_1_0_1
   + y_2_0_1 + y_3_0_1 + y_4_0_1 + y_5_0_1 + y_6_0_1 = -1
 R21: - y_0_1_2 - y_0_2_2 - y_0_3_2 - y_0_4_2 - y_0_5_2 - y_0_6_2 + y_1_0_2
   + y_2_0_2 + y_3_0_2 + y_4_0_2 + y_5_0_2 + y_6_0_2 = -1
 R22: - y_0_1_3 - y_0_2_3 - y_0_3_3 - y_0_4_3 - y_0_5_3 - y_0_6_3 + y_1_0_3
   + y_2_0_3 + y_3_0_3 + y_4_0_3 + y_5_0_3 + y_6_0_3 = -1
 R23: - y_0_1_4 - y_0_2_4 - y_0_3_4 - y_0_4_4 - y_0_5_4 - y_0_6_4 + y_1_0_4
   + y_2_0_4 + y_3_0_4 + y_4_0_4 + y_5_0_4 + y_6_0_4 = -1
 R24: - y_0_1_5 - y_0_2_5 - y_0_3_5 - y_0_4_5 - y_0_5_5 - y_0_6_5 + y_1_0_5
   + y_2_0_5 + y_3_0_5 + y_4_0_5 + y_5_0_5 + y_6_0_5 = -1
 R25: - y_0_1_6 - y_0_2_6 - y_0_3_6 - y_0_4_6 - y_0_5_6 - y_0_6_6 + y_1_0_6
   + y_2_0_6 + y_3_0_6 + y_4_0_6 + y_5_0_6 + y_6_0_6 = -1
 R26: y_0_2_1 + y_1_2_1 - y_2_0_1 - y_2_1_1 - y_2_3_1 - y_2_4_1 - y_2_5_1
   - y_2_6_1 + y_3_2_1 + y_4_2_1 + y_5_2_1 + y_6_2_1 = 0
 R27: y_0_3_1 + y_1_3_1 + y_2_3_1 - y_3_0_1 - y_3_1_1 - y_3_2_1 - y_3_4_1
   - y_3_5_1 - y_3_6_1 + y_4_3_1 + y_5_3_1 + y_6_3_1 = 0
 R28: y_0_4_1 + y_1_4_1 + y_2_4_1 + y_3_4_1 - y_4_0_1 - y_4_1_1 - y_4_2_1
   - y_4_3_1 - y_4_5_1 - y_4_6_1 + y_5_4_1 + y_6_4_1 = 0
 R29: y_0_5_1 + y_1_5_1 + y_2_5_1 + y_3_5_1 + y_4_5_1 - y_5_0_1 - y_5_1_1
   - y_5_2_1 - y_5_3_1 - y_5_4_1 - y_5_6_1 + y_6_5_1 = 0
 R30: y_0_6_1 + y_1_6_1 + y_2_6_1 + y_3_6_1 + y_4_6_1 + y_5_6_1 - y_6_0_1
   - y_6_1_1 - y_6_2_1 - y_6_3_1 - y_6_4_1 - y_6_5_1 = 0
 R31: y_0_1_2 - y_1_0_2 - y_1_2_2 - y_1_3_2 - y_1_4_2 - y_1_5_2 - y_1_6_2
   + y_2_1_2 + y_3_1_2 + y_4_1_2 + y_5_1_2 + y_6_1_2 = 0
 R32: y_0_3_2 + y_1_3_2 + y_2_3_2 - y_3_0_2 - y_3_1_2 - y_3_2_2 - y_3_4_2
   - y_3_5_2 - y_3_6_2 + y_4_3_2 + y_5_3_2 + y_6_3_2 = 0
 R33: y_0_4_2 + y_1_4_2 + y_2_4_2 + y_3_4_2 - y_4_0_2 - y_4_1_2 - y_4_2_2
   - y_4_3_2 - y_4_5_2 - y_4_6_2 + y_5_4_2 + y_6_4_2 = 0
 R34: y_0_5_2 + y_1_5_2 + y_2_5_2 + y_3_5_2 + y_4_5_2 - y_5_0_2 - y_5_1_2
   - y_5_2_2 - y_5_3_2 - y_5_4_2 - y_5_6_2 + y_6_5_2 = 0
 R35: y_0_6_2 + y_1_6_2 + y_2_6_2 + y_3_6_2 + y_4_6_2 + y_5_6_2 - y_6_0_2
   - y_6_1_2 - y_6_2_2 - y_6_3_2 - y_6_4_2 - y_6_5_2 = 0
 R36: y_0_1_3 - y_1_0_3 - y_1_2_3 - y_1_3_3 - y_1_4_3 - y_1_5_3 - y_1_6_3
   + y_2_1_3 + y_3_1_3 + y_4_1_3 + y_5_1_3 + y_6_1_3 = 0
 R37: y_0_2_3 + y_1_2_3 - y_2_0_3 - y_2_1_3 - y_2_3_3 - y_2_4_3 - y_2_5_3
   - y_2_6_3 + y_3_2_3 + y_4_2_3 + y_5_2_3 + y_6_2_3 = 0
 R38: y_0_4_3 + y_1_4_3 + y_2_4_3 + y_3_4_3 - y_4_0_3 - y_4_1_3 - y_4_2_3
   - y_4_3_3 - y_4_5_3 - y_4_6_3 + y_5_4_3 + y_6_4_3 = 0
 R39: y_0_5_3 + y_1_5_3 + y_2_5_3 + y_3_5_3 + y_4_5_3 - y_5_0_3 - y_5_1_3
   - y_5_2_3 - y_5_3_3 - y_5_4_3 - y_5_6_3 + y_6_5_3 = 0
 R40: y_0_6_3 + y_1_6_3 + y_2_6_3 + y_3_6_3 + y_4_6_3 + y_5_6_3 - y_6_0_3
   - y_6_1_3 - y_6_2_3 - y_6_3_3 - y_6_4_3 - y_6_5_3 = 0
 R41: y_0_1_4 - y_1_0_4 - y_1_2_4 - y_1_3_4 - y_1_4_4 - y_1_5_4 - y_1_6_4
   + y_2_1_4 + y_3_1_4 + y_4_1_4 + y_5_1_4 + y_6_1_4 = 0
 R42: y_0_2_4 + y_1_2_4 - y_2_0_4 - y_2_1_4 - y_2_3_4 - y_2_4_4 - y_2_5_4
   - y_2_6_4 + y_3_2_4 + y_4_2_4 + y_5_2_4 + y_6_2_4 = 0
 R43: y_0_3_4 + y_1_3_4 + y_2_3_4 - y_3_0_4 - y_3_1_4 - y_3_2_4 - y_3_4_4
   - y_3_5_4 - y_3_6_4 + y_4_3_4 + y_5_3_4 + y_6_3_4 = 0
 R44: y_0_5_4 + y_1_5_4 + y_2_5_4 + y_3_5_4 + y_4_5_4 - y_5_0_4 - y_5_1_4
   - y_5_2_4 - y_5_3_4 - y_5_4_4 - y_5_6_4 + y_6_5_4 = 0
 R45: y_0_6_4 + y_1_6_4 + y_2_6_4 + y_3_6_4 + y_4_6_4 + y_5_6_4 - y_6_0_4
   - y_6_1_4 - y_6_2_4 - y_6_3_4 - y_6_4_4 - y_6_5_4 = 0
 R46: y_0_1_5 - y_1_0_5 - y_1_2_5 - y_1_3_5 - y_1_4_5 - y_1_5_5 - y_1_6_5
   + y_2_1_5 + y_3_1_5 + y_4_1_5 + y_5_1_5 + y_6_1_5 = 0
 R47: y_0_2_5 + y_1_2_5 - y_2_0_5 - y_2_1_5 - y_2_3_5 - y_2_4_5 - y_2_5_5
   - y_2_6_5 + y_3_2_5 + y_4_2_5 + y_5_2_5 + y_6_2_5 = 0
 R48: y_0_3_5 + y_1_3_5 + y_2_3_5 - y_3_0_5 - y_3_1_5 - y_3_2_5 - y_3_4_5
   - y_3_5_5 - y_3_6_5 + y_4_3_5 + y_5_3_5 + y_6_3_5 = 0
 R49: y_0_4_5 + y_1_4_5 + y_2_4_5 + y_3_4_5 - y_4_0_5 - y_4_1_5 - y_4_2_5
   - y_4_3_5 - y_4_5_5 - y_4_6_5 + y_5_4_5 + y_6_4_5 = 0
 R50: y_0_6_5 + y_1_6_5 + y_2_6_5 + y_3_6_5 + y_4_6_5 + y_5_6_5 - y_6_0_5
   - y_6_1_5 - y_6_2_5 - y_6_3_5 - y_6_4_5 - y_6_5_5 = 0
 R51: y_0_1_6 - y_1_0_6 - y_1_2_6 - y_1_3_6 - y_1_4_6 - y_1_5_6 - y_1_6_6
   + y_2_1_6 + y_3_1_6 + y_4_1_6 + y_5_1_6 + y_6_1_6 = 0
 R52: y_0_2_6 + y_1_2_6 - y_2_0_6 - y_2_1_6 - y_2_3_6 - y_2_4_6 - y_2_5_6
   - y_2_6_6 + y_3_2_6 + y_4_2_6 + y_5_2_6 + y_6_2_6 = 0
 R53: y_0_3_6 + y_1_3_6 + y_2_3_6 - y_3_0_6 - y_3_1_6 - y_3_2_6 - y_3_4_6
   - y_3_5_6 - y_3_6_6 + y_4_3_6 + y_5_3_6 + y_6_3_6 = 0
 R54: y_0_4_6 + y_1_4_6 + y_2_4_6 + y_3_4_6 - y_4_0_6 - y_4_1_6 - y_4_2_6
   - y_4_3_6 - y_4_5_6 - y_4_6_6 + y_5_4_6 + y_6_4_6 = 0
 R55: y_0_5_6 + y_1_5_6 + y_2_5_6 + y_3_5_6 + y_4_5_6 - y_5_0_6 - y_5_1_6
   - y_5_2_6 - y_5_3_6 - y_5_4_6 - y_5_6_6 + y_6_5_6 = 0
 R56: - x_0_1 + y_0_1_1 <= 0
 R57: - x_0_1 + y_0_1_2 <= 0
 R58: - x_0_1 + y_0_1_3 <= 0
 R59: - x_0_1 + y_0_1_4 <= 0
 R60: - x_0_1 + y_0_1_5 <= 0
 R61: - x_0_1 + y_0_1_6 <= 0
 R62: - x_0_2 + y_0_2_1 <= 0
 R63: - x_0_2 + y_0_2_2 <= 0
 R64: - x_0_2 + y_0_2_3 <= 0
 R65: - x_0_2 + y_0_2_4 <= 0
 R66: - x_0_2 + y_0_2_5 <= 0
 R67: - x_0_2 + y_0_2_6 <= 0
 R68: - x_0_3 + y_0_3_1 <= 0
 R69: - x_0_3 + y_0_3_2 <= 0
 R70: - x_0_3 + y_0_3_3 <= 0
 R71: - x_0_3 + y_0_3_4 <= 0
 R72: - x_0_3 + y_0_3_5 <= 0
 R73: - x_0_3 + y_0_3_6 <= 0
 R74: - x_0_4 + y_0_4_1 <= 0
 R75: - x_0_4 + y_0_4_2 <= 0
 R76: - x_0_4 + y_0_4_3 <= 0
 R77: - x_0_4 + y_0_4_4 <= 0
 R78: - x_0_4 + y_0_4_5 <= 0
 R79: - x_0_4 + y_0_4_6 <= 0
 R80: - x_0_5 + y_0_5_1 <= 0
 R81: - x_0_5 + y_0_5_2 <= 0
 R82: - x_0_5 + y_0_5_3 <= 0
 R83: - x_0_5 + y_0_5_4 <= 0
 R84: - x_0_5 + y_0_5_5 <= 0
 R85: - x_0_5 + y_0_5_6 <= 0
 R86: - x_0_6 + y_0_6_1 <= 0
 R87: - x_0_6 + y_0_6_2 <= 0
 R88: - x_0_6 + y_0_6_3 <= 0
 R89: - x_0_6 + y_0_6_4 <= 0
 R90: - x_0_6 + y_0_6_5 <= 0
 R91: - x_0_6 + y_0_6_6 <= 0
 R92: - x_1_0 + y_1_0_1 <= 0
 R93: - x_1_0 + y_1_0_2 <= 0
 R94: - x_1_0 + y_1_0_3 <= 0
 R95: - x_1_0 + y_1_0_4 <= 0
 R96: - x_1_0 + y_1_0_5 <= 0
 R97: - x_1_0 + y_1_0_6 <= 0
 R98: - x_1_2 + y_1_2_1 <= 0
 R99: - x_1_2 + y_1_2_2 <= 0
 R100: - x_1_2 + y_1_2_3 <= 0
 R101: - x_1_2 + y_1_2_4 <= 0
 R102: - x_1_2 + y_1_2_5 <= 0
 R103: - x_1_2 + y_1_2_6 <= 0
 R104: - x_1_3 + y_1_3_1 <= 0
 R105: - x_1_3 + y_1_3_2 <= 0
 R106: - x_1_3 + y_1_3_3 <= 0
 R107: - x_1_3 + y_1_3_4 <= 0
 R108: - x_1_3 + y_1_3_5 <= 0
 R109: - x_1_3 + y_1_3_6 <= 0
 R110: - x_1_4 + y_1_4_1 <= 0
 R111: - x_1_4 + y_1_4_2 <= 0
 R112: - x_1_4 + y_1_4_3 <= 0
 R113: - x_1_4 + y_1_4_4 <= 0
 R114: - x_1_4 + y_1_4_5 <= 0
 R115: - x_1_4 + y_1_4_6 <= 0
 R116: - x_1_5 + y_1_5_1 <= 0
 R117: - x_1_5 + y_1_5_2 <= 0
 R118: - x_1_5 + y_1_5_3 <= 0
 R119: - x_1_5 + y_1_5_4 <= 0
 R120: - x_1_5 + y_1_5_5 <= 0
 R121: - x_1_5 + y_1_5_6 <= 0
 R122: - x_1_6 + y_1_6_1 <= 0
 R123: - x_1_6 + y_1_6_2 <= 0
 R124: - x_1_6 + y_1_6_3 <= 0
 R125: - x_1_6 + y_1_6_4 <= 0
 R126: - x_1_6 + y_1_6_5 <= 0
 R127: - x_1_6 + y_1_6_6 <= 0
 R128: - x_2_0 + y_2_0_1 <= 0
 R129: - x_2_0 + y_2_0_2 <= 0
 R130: - x_2_0 + y_2_0_3 <= 0
 R131: - x_2_0 + y_2_0_4 <= 0
 R132: - x_2_0 + y_2_0_5 <= 0
 R133: - x_2_0 + y_2_0_6 <= 0
 R134: - x_2_1 + y_2_1_1 <= 0
 R135: - x_2_1 + y_2_1_2 <= 0
 R136: - x_2_1 + y_2_1_3 <= 0
 R137: - x_2_1 + y_2_1_4 <= 0
 R138: - x_2_1 + y_2_1_5 <= 0
 R139: - x_2_1 + y_2_1_6 <= 0
 R140: - x_2_3 + y_2_3_1 <= 0
 R141: - x_2_3 + y_2_3_2 <= 0
 R142: - x_2_3 + y_2_3_3 <= 0
 R143: - x_2_3 + y_2_3_4 <= 0
 R144: - x_2_3 + y_2_3_5 <= 0
 R145: - x_2_3 + y_2_3_6 <= 0
 R146: - x_2_4 + y_2_4_1 <= 0
 R147: - x_2_4 + y_2_4_2 <= 0
 R148: - x_2_4 + y_2_4_3 <= 0
 R149: - x_2_4 + y_2_4_4 <= 0
 R150: - x_2_4 + y_2_4_5 <= 0
 R151: - x_2_4 + y_2_4_6 <= 0
 R152: - x_2_5 + y_2_5_1 <= 0
 R153: - x_2_5 + y_2_5_2 <= 0
 R154: - x_2_5 + y_2_5_3 <= 0
 R155: - x_2_5 + y_2_5_4 <= 0
 R156: - x_2_5 + y_2_5_5 <= 0
 R157: - x_2_5 + y_2_5_6 <= 0
 R158: - x_2_6 + y_2_6_1 <= 0
 R159: - x_2_6 + y_2_6_2 <= 0
 R160: - x_2_6 + y_2_6_3 <= 0
 R161: - x_2_6 + y_2_6_4 <= 0
 R162: - x_2_6 + y_2_6_5 <= 0
 R163: - x_2_6 + y_2_6_6 <= 0
 R164: - x_3_0 + y_3_0_1 <= 0
 R165: - x_3_0 + y_3_0_2 <= 0
 R166: - x_3_0 + y_3_0_3 <= 0
 R167: - x_3_0 + y_3_0_4 <= 0
 R168: - x_3_0 + y_3_0_5 <= 0
 R169: - x_3_0 + y_3_0_6 <= 0
 R170: - x_3_1 + y_3_1_1 <= 0
 R171: - x_3_1 + y_3_1_2 <= 0
 R172: - x_3_1 + y_3_1_3 <= 0
 R173: - x_3_1 + y_3_1_4 <= 0
 R174: - x_3_1 + y_3_1_5 <= 0
 R175: - x_3_1 + y_3_1_6 <= 0
 R176: - x_3_2 + y_3_2_1 <= 0
 R177: - x_3_2 + y_3_2_2 <= 0
 R178: - x_3_2 + y_3_2_3 <= 0
 R179: - x_3_2 + y_3_2_4 <= 0
 R180: - x_3_2 + y_3_2_5 <= 0
 R181: - x_3_2 + y_3_2_6 <= 0
 R182: - x_3_4 + y_3_4_1 <= 0
 R183: - x_3_4 + y_3_4_2 <= 0
 R184: - x_3_4 + y_3_4_3 <= 0
 R185: - x_3_4 + y_3_4_4 <= 0
 R186: - x_3_4 + y_3_4_5 <= 0
 R187: - x_3_4 + y_3_4_6 <= 0
 R188: - x_3_5 + y_3_5_1 <= 0
 R189: - x_3_5 + y_3_5_2 <= 0
 R190: - x_3_5 + y_3_5_3 <= 0
 R191: - x_3_5 + y_3_5_4 <= 0
 R192: - x_3_5 + y_3_5_5 <= 0
 R193: - x_3_5 + y_3_5_6 <= 0
 R194: - x_3_6 + y_3_6_1 <= 0
 R195: - x_3_6 + y_3_6_2 <= 0
 R196: - x_3_6 + y_3_6_3 <= 0
 R197: - x_3_6 + y_3_6_4 <= 0
 R198: - x_3_6 + y_3_6_5 <= 0
 R199: - x_3_6 + y_3_6_6 <= 0
 R200: - x_4_0 + y_4_0_1 <= 0
 R201: - x_4_0 + y_4_0_2 <= 0
 R202: - x_4_0 + y_4_0_3 <= 0
 R203: - x_4_0 + y_4_0_4 <= 0
 R204: - x_4_0 + y_4_0_5 <= 0
 R205: - x_4_0 + y_4_0_6 <= 0
 R206: - x_4_1 + y_4_1_1 <= 0
 R207: - x_4_1 + y_4_1_2 <= 0
 R208: - x_4_1 + y_4_1_3 <= 0
 R209: - x_4_1 + y_4_1_4 <= 0
 R210: - x_4_1 + y_4_1_5 <= 0
 R211: - x_4_1 + y_4_1_6 <= 0
 R212: - x_4_2 + y_4_2_1 <= 0
 R213: - x_4_2 + y_4_2_2 <= 0
 R214: - x_4_2 + y_4_2_3 <= 0
 R215: - x_4_2 + y_4_2_4 <= 0
 R216: - x_4_2 + y_4_2_5 <= 0
 R217: - x_4_2 + y_4_2_6 <= 0
 R218: - x_4_3 + y_4_3_1 <= 0
 R219: - x_4_3 + y_4_3_2 <= 0
 R220: - x_4_3 + y_4_3_3 <= 0
 R221: - x_4_3 + y_4_3_4 <= 0
 R222: - x_4_3 + y_4_3_5 <= 0
 R223: - x_4_3 + y_4_3_6 <= 0
 R224: - x_4_5 + y_4_5_1 <= 0
 R225: - x_4_5 + y_4_5_2 <= 0
 R226: - x_4_5 + y_4_5_3 <= 0
 R227: - x_4_5 + y_4_5_4 <= 0
 R228: - x_4_5 + y_4_5_5 <= 0
 R229: - x_4_5 + y_4_5_6 <= 0
 R230: - x_4_6 + y_4_6_1 <= 0
 R231: - x_4_6 + y_4_6_2 <= 0
 R232: - x_4_6 + y_4_6_3 <= 0
 R233: - x_4_6 + y_4_6_4 <= 0
 R234: - x_4_6 + y_4_6_5 <= 0
 R235: - x_4_6 + y_4_6_6 <= 0
 R236: - x_5_0 + y_5_0_1 <= 0
 R237: - x_5_0 + y_5_0_2 <= 0
 R238: - x_5_0 + y_5_0_3 <= 0
 R239: - x_5_0 + y_5_0_4 <= 0
 R240: - x_5_0 + y_5_0_5 <= 0
 R241: - x_5_0 + y_5_0_6 <= 0
 R242: - x_5_1 + y_5_1_1 <= 0
 R243: - x_5_1 + y_5_1_2 <= 0
 R244: - x_5_1 + y_5_1_3 <= 0
 R245: - x_5_1 + y_5_1_4 <= 0
 R246: - x_5_1 + y_5_1_5 <= 0
 R247: - x_5_1 + y_5_1_6 <= 0
 R248: - x_5_2 + y_5_2_1 <= 0
 R249: - x_5_2 + y_5_2_2 <= 0
 R250: - x_5_2 + y_5_2_3 <= 0
 R251: - x_5_2 + y_5_2_4 <= 0
 R252: - x_5_2 + y_5_2_5 <= 0
 R253: - x_5_2 + y_5_2_6 <= 0
 R254: - x_5_3 + y_5_3_1 <= 0
 R255: - x_5_3 + y_5_3_2 <= 0
 R256: - x_5_3 + y_5_3_3 <= 0
 R257: - x_5_3 + y_5_3_4 <= 0
 R258: - x_5_3 + y_5_3_5 <= 0
 R259: - x_5_3 + y_5_3_6 <= 0
 R260: - x_5_4 + y_5_4_1 <= 0
 R261: - x_5_4 + y_5_4_2 <= 0
 R262: - x_5_4 + y_5_4_3 <= 0
 R263: - x_5_4 + y_5_4_4 <= 0
 R264: - x_5_4 + y_5_4_5 <= 0
 R265: - x_5_4 + y_5_4_6 <= 0
 R266: - x_5_6 + y_5_6_1 <= 0
 R267: - x_5_6 + y_5_6_2 <= 0
 R268: - x_5_6 + y_5_6_3 <= 0
 R269: - x_5_6 + y_5_6_4 <= 0
 R270: - x_5_6 + y_5_6_5 <= 0
 R271: - x_5_6 + y_5_6_6 <= 0
 R272: - x_6_0 + y_6_0_1 <= 0
 R273: - x_6_0 + y_6_0_2 <= 0
 R274: - x_6_0 + y_6_0_3 <= 0
 R275: - x_6_0 + y_6_0_4 <= 0
 R276: - x_6_0 + y_6_0_5 <= 0
 R277: - x_6_0 + y_6_0_6 <= 0
 R278: - x_6_1 + y_6_1_1 <= 0
 R279: - x_6_1 + y_6_1_2 <= 0
 R280: - x_6_1 + y_6_1_3 <= 0
 R281: - x_6_1 + y_6_1_4 <= 0
 R282: - x_6_1 + y_6_1_5 <= 0
 R283: - x_6_1 + y_6_1_6 <= 0
 R284: - x_6_2 + y_6_2_1 <= 0
 R285: - x_6_2 + y_6_2_2 <= 0
 R286: - x_6_2 + y_6_2_3 <= 0
 R287: - x_6_2 + y_6_2_4 <= 0
 R288: - x_6_2 + y_6_2_5 <= 0
 R289: - x_6_2 + y_6_2_6 <= 0
 R290: - x_6_3 + y_6_3_1 <= 0
 R291: - x_6_3 + y_6_3_2 <= 0
 R292: - x_6_3 + y_6_3_3 <= 0
 R293: - x_6_3 + y_6_3_4 <= 0
 R294: - x_6_3 + y_6_3_5 <= 0
 R295: - x_6_3 + y_6_3_6 <= 0
 R296: - x_6_4 + y_6_4_1 <= 0
 R297: - x_6_4 + y_6_4_2 <= 0
 R298: - x_6_4 + y_6_4_3 <= 0
 R299: - x_6_4 + y_6_4_4 <= 0
 R300: - x_6_4 + y_6_4_5 <= 0
 R301: - x_6_4 + y_6_4_6 <= 0
 R302: - x_6_5 + y_6_5_1 <= 0
 R303: - x_6_5 + y_6_5_2 <= 0
 R304: - x_6_5 + y_6_5_3 <= 0
 R305: - x_6_5 + y_6_5_4 <= 0
 R306: - x_6_5 + y_6_5_5 <= 0
 R307: - x_6_5 + y_6_5_6 <= 0
 R308: y_0_1_1 + y_0_1_2 + y_0_1_3 + y_0_1_4 + y_0_1_5 + y_0_1_6 + y_0_2_1
   + y_0_2_2 + y_0_2_3 + y_0_2_4 + y_0_2_5 + y_0_2_6 + y_0_3_1 + y_0_3_2
   + y_0_3_3 + y_0_3_4 + y_0_3_5 + y_0_3_6 + y_0_4_1 + y_0_4_2 + y_0_4_3
   + y_0_4_4 + y_0_4_5 + y_0_4_6 + y_0_5_1 + y_0_5_2 + y_0_5_3 + y_0_5_4
   + y_0_5_5 + y_0_5_6 + y_0_6_1 + y_0_6_2 + y_0_6_3 + y_0_6_4 + y_0_6_5
   + y_0_6_6 <= 3
 R309: y_1_2_1 + y_1_2_2 + y_1_2_3 + y_1_2_4 + y_1_2_5 + y_1_2_6 + y_1_3_1
   + y_1_3_2 + y_1_3_3 + y_1_3_4 + y_1_3_5 + y_1_3_6 + y_1_4_1 + y_1_4_2
   + y_1_4_3 + y_1_4_4 + y_1_4_5 + y_1_4_6 + y_1_5_1 + y_1_5_2 + y_1_5_3
   + y_1_5_4 + y_1_5_5 + y_1_5_6 + y_1_6_1 + y_1_6_2 + y_1_6_3 + y_1_6_4
   + y_1_6_5 + y_1_6_6 <= 2
 R310: y_2_1_1 + y_2_1_2 + y_2_1_3 + y_2_1_4 + y_2_1_5 + y_2_1_6 + y_2_3_1
   + y_2_3_2 + y_2_3_3 + y_2_3_4 + y_2_3_5 + y_2_3_6 + y_2_4_1 + y_2_4_2
   + y_2_4_3 + y_2_4_4 + y_2_4_5 + y_2_4_6 + y_2_5_1 + y_2_5_2 + y_2_5_3
   + y_2_5_4 + y_2_5_5 + y_2_5_6 + y_2_6_1 + y_2_6_2 + y_2_6_3 + y_2_6_4
   + y_2_6_5 + y_2_6_6 <= 2
 R311: y_3_1_1 + y_3_1_2 + y_3_1_3 + y_3_1_4 + y_3_1_5 + y_3_1_6 + y_3_2_1
   + y_3_2_2 + y_3_2_3 + y_3_2_4 + y_3_2_5 + y_3_2_6 + y_3_4_1 + y_3_4_2
   + y_3_4_3 + y_3_4_4 + y_3_4_5 + y_3_4_6 + y_3_5_1 + y_3_5_2 + y_3_5_3
   + y_3_5_4 + y_3_5_5 + y_3_5_6 + y_3_6_1 + y_3_6_2 + y_3_6_3 + y_3_6_4
   + y_3_6_5 + y_3_6_6 <= 2
 R312: y_4_1_1 + y_4_1_2 + y_4_1_3 + y_4_1_4 + y_4_1_5 + y_4_1_6 + y_4_2_1
   + y_4_2_2 + y_4_2_3 + y_4_2_4 + y_4_2_5 + y_4_2_6 + y_4_3_1 + y_4_3_2
   + y_4_3_3 + y_4_3_4 + y_4_3_5 + y_4_3_6 + y_4_5_1 + y_4_5_2 + y_4_5_3
   + y_4_5_4 + y_4_5_5 + y_4_5_6 + y_4_6_1 + y_4_6_2 + y_4_6_3 + y_4_6_4
   + y_4_6_5 + y_4_6_6 <= 2
 R313: y_5_1_1 + y_5_1_2 + y_5_1_3 + y_5_1_4 + y_5_1_5 + y_5_1_6 + y_5_2_1
   + y_5_2_2 + y_5_2_3 + y_5_2_4 + y_5_2_5 + y_5_2_6 + y_5_3_1 + y_5_3_2
   + y_5_3_3 + y_5_3_4 + y_5_3_5 + y_5_3_6 + y_5_4_1 + y_5_4_2 + y_5_4_3
   + y_5_4_4 + y_5_4_5 + y_5_4_6 + y_5_6_1 + y_5_6_2 + y_5_6_3 + y_5_6_4
   + y_5_6_5 + y_5_6_6 <= 2
 R314: y_6_1_1 + y_6_1_2 + y_6_1_3 + y_6_1_4 + y_6_1_5 + y_6_1_6 + y_6_2_1
   + y_6_2_2 + y_6_2_3 + y_6_2_4 + y_6_2_5 + y_6_2_6 + y_6_3_1 + y_6_3_2
   + y_6_3_3 + y_6_3_4 + y_6_3_5 + y_6_3_6 + y_6_4_1 + y_6_4_2 + y_6_4_3
   + y_6_4_4 + y_6_4_5 + y_6_4_6 + y_6_5_1 + y_6_5_2 + y_6_5_3 + y_6_5_4
   + y_6_5_5 + y_6_5_6 <= 2
Bounds
Binaries
 x_0_1 x_0_2 x_0_3 x_0_4 x_0_5 x_0_6 x_1_0 x_1_2 x_1_3 x_1_4 x_1_5 x_1_6
 x_2_0 x_2_1 x_2_3 x_2_4 x_2_5 x_2_6 x_3_0 x_3_1 x_3_2 x_3_4 x_3_5 x_3_6
 x_4_0 x_4_1 x_4_2 x_4_3 x_4_5 x_4_6 x_5_0 x_5_1 x_5_2 x_5_3 x_5_4 x_5_6
 x_6_0 x_6_1 x_6_2 x_6_3 x_6_4 x_6_5
End
